p cnf 369 664               
22 -321 0
23 -321 0
21 -320 0
23 -320 0
21 -319 0
22 -319 0
20 -318 0
23 -318 0
20 -317 0
22 -317 0
20 -316 0
21 -316 0
19 -315 0
23 -315 0
19 -314 0
22 -314 0
19 -313 0
21 -313 0
19 -312 0
20 -312 0
18 -311 0
23 -311 0
18 -310 0
22 -310 0
18 -309 0
21 -309 0
18 -308 0
20 -308 0
18 -307 0
19 -307 0
17 -306 0
23 -306 0
17 -305 0
22 -305 0
17 -304 0
21 -304 0
17 -303 0
20 -303 0
17 -302 0
19 -302 0
17 -301 0
18 -301 0
16 -300 0
23 -300 0
16 -299 0
22 -299 0
16 -298 0
21 -298 0
16 -297 0
20 -297 0
16 -296 0
19 -296 0
16 -295 0
18 -295 0
16 -294 0
17 -294 0
15 -293 0
23 -293 0
15 -292 0
22 -292 0
15 -291 0
21 -291 0
15 -290 0
20 -290 0
15 -289 0
19 -289 0
15 -288 0
18 -288 0
15 -287 0
17 -287 0
15 -286 0
16 -286 0
14 -285 0
23 -285 0
14 -284 0
22 -284 0
14 -283 0
21 -283 0
14 -282 0
20 -282 0
14 -281 0
19 -281 0
14 -280 0
18 -280 0
14 -279 0
17 -279 0
14 -278 0
16 -278 0
14 -277 0
15 -277 0
13 -276 0
23 -276 0
13 -275 0
22 -275 0
13 -274 0
21 -274 0
13 -273 0
20 -273 0
13 -272 0
19 -272 0
13 -271 0
18 -271 0
13 -270 0
17 -270 0
13 -269 0
16 -269 0
13 -268 0
15 -268 0
13 -267 0
14 -267 0
12 -266 0
23 -266 0
12 -265 0
22 -265 0
12 -264 0
21 -264 0
12 -263 0
20 -263 0
12 -262 0
19 -262 0
12 -261 0
18 -261 0
12 -260 0
17 -260 0
12 -259 0
16 -259 0
12 -258 0
15 -258 0
12 -257 0
14 -257 0
12 -256 0
13 -256 0
11 -255 0
23 -255 0
11 -254 0
22 -254 0
11 -253 0
21 -253 0
11 -252 0
20 -252 0
11 -251 0
19 -251 0
11 -250 0
18 -250 0
11 -249 0
17 -249 0
11 -248 0
16 -248 0
11 -247 0
15 -247 0
11 -246 0
14 -246 0
11 -245 0
13 -245 0
11 -244 0
12 -244 0
10 -243 0
23 -243 0
10 -242 0
22 -242 0
10 -241 0
21 -241 0
10 -240 0
20 -240 0
10 -239 0
19 -239 0
10 -238 0
18 -238 0
10 -237 0
17 -237 0
10 -236 0
16 -236 0
10 -235 0
15 -235 0
10 -234 0
14 -234 0
10 -233 0
13 -233 0
10 -232 0
12 -232 0
10 -231 0
11 -231 0
9 -230 0
23 -230 0
9 -229 0
22 -229 0
9 -228 0
21 -228 0
9 -227 0
20 -227 0
9 -226 0
19 -226 0
9 -225 0
18 -225 0
9 -224 0
17 -224 0
9 -223 0
16 -223 0
9 -222 0
15 -222 0
9 -221 0
14 -221 0
9 -220 0
13 -220 0
9 -219 0
12 -219 0
9 -218 0
11 -218 0
9 -217 0
10 -217 0
8 -216 0
23 -216 0
8 -215 0
22 -215 0
8 -214 0
21 -214 0
8 -213 0
20 -213 0
8 -212 0
19 -212 0
8 -211 0
18 -211 0
8 -210 0
17 -210 0
8 -209 0
16 -209 0
8 -208 0
15 -208 0
8 -207 0
14 -207 0
8 -206 0
13 -206 0
8 -205 0
12 -205 0
8 -204 0
11 -204 0
8 -203 0
10 -203 0
8 -202 0
9 -202 0
7 -201 0
23 -201 0
7 -200 0
22 -200 0
7 -199 0
21 -199 0
7 -198 0
20 -198 0
7 -197 0
19 -197 0
7 -196 0
18 -196 0
7 -195 0
17 -195 0
7 -194 0
16 -194 0
7 -193 0
15 -193 0
7 -192 0
14 -192 0
7 -191 0
13 -191 0
7 -190 0
12 -190 0
7 -189 0
11 -189 0
7 -188 0
10 -188 0
7 -187 0
9 -187 0
7 -186 0
8 -186 0
6 -185 0
23 -185 0
6 -184 0
22 -184 0
6 -183 0
21 -183 0
6 -182 0
20 -182 0
6 -181 0
19 -181 0
6 -180 0
18 -180 0
6 -179 0
17 -179 0
6 -178 0
16 -178 0
6 -177 0
15 -177 0
6 -176 0
14 -176 0
6 -175 0
13 -175 0
6 -174 0
12 -174 0
6 -173 0
11 -173 0
6 -172 0
10 -172 0
6 -171 0
9 -171 0
6 -170 0
8 -170 0
6 -169 0
7 -169 0
5 -168 0
23 -168 0
5 -167 0
22 -167 0
5 -166 0
21 -166 0
5 -165 0
20 -165 0
5 -164 0
19 -164 0
5 -163 0
18 -163 0
5 -162 0
17 -162 0
5 -161 0
16 -161 0
5 -160 0
15 -160 0
5 -159 0
14 -159 0
5 -158 0
13 -158 0
5 -157 0
12 -157 0
5 -156 0
11 -156 0
5 -155 0
10 -155 0
5 -154 0
9 -154 0
5 -153 0
8 -153 0
5 -152 0
7 -152 0
5 -151 0
6 -151 0
4 -150 0
23 -150 0
4 -149 0
22 -149 0
4 -148 0
21 -148 0
4 -147 0
20 -147 0
4 -146 0
19 -146 0
4 -145 0
18 -145 0
4 -144 0
17 -144 0
4 -143 0
16 -143 0
4 -142 0
15 -142 0
4 -141 0
14 -141 0
4 -140 0
13 -140 0
4 -139 0
12 -139 0
4 -138 0
11 -138 0
4 -137 0
10 -137 0
4 -136 0
9 -136 0
4 -135 0
8 -135 0
4 -134 0
7 -134 0
4 -133 0
6 -133 0
4 -132 0
5 -132 0
3 -131 0
23 -131 0
3 -130 0
22 -130 0
3 -129 0
21 -129 0
3 -128 0
20 -128 0
3 -127 0
19 -127 0
3 -126 0
18 -126 0
3 -125 0
17 -125 0
3 -124 0
16 -124 0
3 -123 0
15 -123 0
3 -122 0
14 -122 0
3 -121 0
13 -121 0
3 -120 0
12 -120 0
3 -119 0
11 -119 0
3 -118 0
10 -118 0
3 -117 0
9 -117 0
3 -116 0
8 -116 0
3 -115 0
7 -115 0
3 -114 0
6 -114 0
3 -113 0
5 -113 0
3 -112 0
4 -112 0
2 -111 0
23 -111 0
2 -110 0
22 -110 0
2 -109 0
21 -109 0
2 -108 0
20 -108 0
2 -107 0
19 -107 0
2 -106 0
18 -106 0
2 -105 0
17 -105 0
2 -104 0
16 -104 0
2 -103 0
15 -103 0
2 -102 0
14 -102 0
2 -101 0
13 -101 0
2 -100 0
12 -100 0
2 -99 0
11 -99 0
2 -98 0
10 -98 0
2 -97 0
9 -97 0
2 -96 0
8 -96 0
2 -95 0
7 -95 0
2 -94 0
6 -94 0
2 -93 0
5 -93 0
2 -92 0
4 -92 0
2 -91 0
3 -91 0
1 -90 0
23 -90 0
1 -89 0
22 -89 0
1 -88 0
21 -88 0
1 -87 0
20 -87 0
1 -86 0
19 -86 0
1 -85 0
18 -85 0
1 -84 0
17 -84 0
1 -83 0
16 -83 0
1 -82 0
15 -82 0
1 -81 0
14 -81 0
1 -80 0
13 -80 0
1 -79 0
12 -79 0
1 -78 0
11 -78 0
1 -77 0
10 -77 0
1 -76 0
9 -76 0
1 -75 0
8 -75 0
1 -74 0
7 -74 0
1 -73 0
6 -73 0
1 -72 0
5 -72 0
1 -71 0
4 -71 0
1 -70 0
3 -70 0
1 -69 0
2 -69 0
321 320 319 318 317 316 315 314 313 312 311 310 309 308 307 306 305 304 303 302 301 300 299 298 297 296 295 294 293 292 291 290 289 288 287 286 285 284 283 282 281 280 279 278 277 276 275 274 273 272 271 270 269 268 267 266 265 264 263 262 261 260 259 258 257 256 255 254 253 252 251 250 249 248 247 246 245 244 243 242 241 240 239 238 237 236 235 234 233 232 231 230 229 228 227 226 225 224 223 222 221 220 219 218 217 216 215 214 213 212 211 210 209 208 207 206 205 204 203 202 201 200 199 198 197 196 195 194 193 192 191 190 189 188 187 186 185 184 183 182 181 180 179 178 177 176 175 174 173 172 171 170 169 168 167 166 165 164 163 162 161 160 159 158 157 156 155 154 153 152 151 150 149 148 147 146 145 144 143 142 141 140 139 138 137 136 135 134 133 132 131 130 129 128 127 126 125 124 123 122 121 120 119 118 117 116 115 114 113 112 111 110 109 108 107 106 105 104 103 102 101 100 99 98 97 96 95 94 93 92 91 90 89 88 87 86 85 84 83 82 81 80 79 78 77 76 75 74 73 72 71 70 69 322 0
-322 -323 0
-2 -1 -24 0
24 -68 0
-1 25 0
-2 25 0
1 2 -25 0
-25 -3 -26 0
26 -68 0
-3 27 0
-25 27 0
3 25 -27 0
-27 -4 -28 0
28 -68 0
-4 29 0
-27 29 0
4 27 -29 0
-29 -5 -30 0
30 -68 0
-5 31 0
-29 31 0
5 29 -31 0
-31 -6 -32 0
32 -68 0
-6 33 0
-31 33 0
6 31 -33 0
-33 -7 -34 0
34 -68 0
-7 35 0
-33 35 0
7 33 -35 0
-35 -8 -36 0
36 -68 0
-8 37 0
-35 37 0
8 35 -37 0
-37 -9 -38 0
38 -68 0
-9 39 0
-37 39 0
9 37 -39 0
-39 -10 -40 0
40 -68 0
-10 41 0
-39 41 0
10 39 -41 0
-41 -11 -42 0
42 -68 0
-11 43 0
-41 43 0
11 41 -43 0
-43 -12 -44 0
44 -68 0
-12 45 0
-43 45 0
12 43 -45 0
-45 -13 -46 0
46 -68 0
-13 47 0
-45 47 0
13 45 -47 0
-47 -14 -48 0
48 -68 0
-14 49 0
-47 49 0
14 47 -49 0
-49 -15 -50 0
50 -68 0
-15 51 0
-49 51 0
15 49 -51 0
-51 -16 -52 0
52 -68 0
-16 53 0
-51 53 0
16 51 -53 0
-53 -17 -54 0
54 -68 0
-17 55 0
-53 55 0
17 53 -55 0
-55 -18 -56 0
56 -68 0
-18 57 0
-55 57 0
18 55 -57 0
-57 -19 -58 0
58 -68 0
-19 59 0
-57 59 0
19 57 -59 0
-59 -20 -60 0
60 -68 0
-20 61 0
-59 61 0
20 59 -61 0
-61 -21 -62 0
62 -68 0
-21 63 0
-61 63 0
21 61 -63 0
-63 -22 -64 0
64 -68 0
-22 65 0
-63 65 0
22 63 -65 0
-65 -23 -66 0
66 -68 0
23 65 -67 0
67 -68 0
68 -323 0
-1 2 -324 0
324 -368 0
-2 3 -326 0
326 -368 0
-3 4 -328 0
328 -368 0
-4 5 -330 0
330 -368 0
-5 6 -332 0
332 -368 0
-6 7 -334 0
334 -368 0
-7 8 -336 0
336 -368 0
-8 9 -338 0
338 -368 0
-9 10 -340 0
340 -368 0
-10 11 -342 0
342 -368 0
-11 12 -344 0
344 -368 0
-12 13 -346 0
346 -368 0
-13 14 -348 0
348 -368 0
-14 15 -350 0
350 -368 0
-15 16 -352 0
352 -368 0
-16 17 -354 0
354 -368 0
-17 18 -356 0
356 -368 0
-18 19 -358 0
358 -368 0
-19 20 -360 0
360 -368 0
-20 21 -362 0
362 -368 0
-21 22 -364 0
364 -368 0
-22 23 -366 0
366 -368 0
323 0
368 0
